print hello

python source here """
import lammps
from nfflr.extern.lammps import MLIAPModel

unified = MLIAPModel(["Ga", "As", "Al", "N"])
unified.pickle("mliap_test_inline.pkl")
"""

# 3d Lennard-Jones melt

units       lj
atom_style  atomic

lattice     fcc 0.8442
region      box block 0 10 0 10 0 10
create_box  1 box
create_atoms    1 box
mass        1 1.0

velocity    all create 3.0 87287 loop geom

# Run the simulation with the mliap unified pair style
# Use pre-loaded model by specifying model filename as "EXISTS"
# pair_style  mliap unified EXISTS
pair_style      mliap unified mliap_test_inline.pkl 0
pair_coeff  * * Ga As Al N

neighbor    0.3 bin
neigh_modify    every 20 delay 0 check no

fix     1 all nve

thermo      50
run     250
